% Données
% Définition des ensembles
F = 0..2;
L = 0..4;

% Paramètres
lien = array2d(F, L, [
    0, 1, 0, 0, 0,  % Lot 0 sur la ligne 0
    0, 0, 1, 0, 0,  % Lot 1 sur la ligne 1
    0, 1, 0, 0, 0   % Lot 2 sur la ligne 2
]);

quantite = [1800, 500, 200];
cadence = [8, 12, 2, 6, 5];
nb_employe = [2, 1, 3, 4, 2];
nb_operateur = [1, 1, 2, 2, 1];
employe = 3;
operateur = 4;
temps_journee = 100;